6 16 4 10
15 6 13 16 5 12 1 14 20 17 16 8 8 8 15 9 
12.09 13.23 12.74 15.02 13.81 13.17 11.06 10.19 5.89 11.49 12.26 12.07 9.69 2.12 2.75 6.96 
7.81 9.46 9.82 1.26 5.51 13.45 12.81 6.72 7.84 12.87 12.45 15.41 3.33 10.27 12.58 11.87 
11.37 0.33 10.84 0.2 9.89 2.67 13.45 4.12 4.59 5.71 0.06 4.09 8.45 9.4 3.63 7.98 
13.76 0.72 2.42 11.3 3.54 7.63 4.47 6.13 4.33 9.62 2.65 12.09 0.06 3.26 12 5.6 
8 8 8 8 8 8 8 8 8 8 8 8 8 8 8 8 
9.22 5.39 13.14 1.55 8.02 10.23 8.87 7.8 14.22 3.94 7.29 12.23 9.92 14.34 1.28 4.78 
1 1 1 1 1 1 1 1 1 1 1 1 1 1 1 1 
1 1 1 1 1 1 1 1 1 1 1 1 1 1 1 1 
1 1 1 1 1 1 1 1 1 1 1 1 1 1 1 1 
1 1 1 1 1 1 1 1 1 1 1 1 1 1 1 1 
1 1 1 1 1 1 1 1 1 1 1 1 1 1 1 1 
1 1 1 1 1 1 1 1 1 1 1 1 1 1 1 1 
0.01 0.01 0.01 0.01 0.01 0.01 0.01 0.01 0.01 0.01 0.01 0.01 0.01 0.01 0.01 0.01 
0.02 0.02 0.02 0.02 0.02 0.02 0.02 0.02 0.02 0.02 0.02 0.02 0.02 0.02 0.02 0.02 
0.03 0.03 0.03 0.03 0.03 0.03 0.03 0.03 0.03 0.03 0.03 0.03 0.03 0.03 0.03 0.03 
0.04 0.04 0.04 0.04 0.04 0.04 0.04 0.04 0.04 0.04 0.04 0.04 0.04 0.04 0.04 0.04 
0.05 0.05 0.05 0.05 0.05 0.05 0.05 0.05 0.05 0.05 0.05 0.05 0.05 0.05 0.05 0.05 
1 1 1 1 1 1 1 1 1 1 1 1 1 1 1 1 
